jobs  (incl. supersource/sink ):	102
RESOURCES
- renewable                 : 2 R
- nonrenewable              : 4 N
- doubly constrained        : 0 D
************************************************************************
PRECEDENCE RELATIONS:
jobnr.    #modes  #successors   successors
1	1	9		2 3 4 5 7 9 11 12 13 
2	3	9		29 25 24 23 21 19 17 15 14 
3	3	5		24 16 14 10 6 
4	3	4		29 21 18 8 
5	3	6		29 25 20 19 16 15 
6	3	4		23 19 18 17 
7	3	5		29 28 26 20 19 
8	3	4		26 25 23 19 
9	3	7		33 31 30 29 26 25 23 
10	3	4		28 26 19 18 
11	3	4		34 29 28 18 
12	3	2		28 16 
13	3	2		28 16 
14	3	3		34 28 18 
15	3	3		34 26 18 
16	3	2		34 18 
17	3	7		34 33 32 31 28 27 26 
18	3	3		35 31 22 
19	3	3		35 31 22 
20	3	7		35 34 33 32 31 30 27 
21	3	7		46 38 37 35 32 30 27 
22	3	7		49 46 37 33 32 30 27 
23	3	5		51 34 32 28 27 
24	3	6		49 46 35 33 30 27 
25	3	4		51 35 34 27 
26	3	7		50 46 41 38 37 36 35 
27	3	7		50 47 45 41 40 39 36 
28	3	6		56 50 47 40 39 38 
29	3	5		51 49 41 37 36 
30	3	6		51 47 43 42 40 36 
31	3	6		56 51 47 42 40 38 
32	3	7		57 56 50 48 47 44 41 
33	3	5		57 51 47 40 39 
34	3	5		57 49 46 42 40 
35	3	4		56 43 42 40 
36	3	6		61 57 56 55 48 44 
37	3	7		60 55 54 53 52 48 47 
38	3	5		65 54 52 49 43 
39	3	2		48 42 
40	3	6		61 60 55 54 53 48 
41	3	4		65 61 52 43 
42	3	3		61 55 44 
43	3	6		68 60 59 58 55 53 
44	3	5		65 60 58 54 52 
45	3	4		68 60 55 48 
46	3	5		75 62 61 58 55 
47	3	8		74 70 65 64 63 62 61 58 
48	3	8		75 74 70 67 65 63 62 58 
49	3	7		75 74 70 63 62 61 58 
50	3	7		71 69 68 65 63 62 59 
51	3	5		74 69 68 62 59 
52	3	10		76 75 74 73 72 71 68 67 66 63 
53	3	8		76 75 74 69 67 66 63 62 
54	3	4		74 73 68 59 
55	3	9		83 74 73 72 71 69 67 64 63 
56	3	9		85 77 75 73 72 71 69 66 64 
57	3	8		76 75 74 71 70 68 67 66 
58	3	8		85 77 76 73 72 71 69 66 
59	3	6		76 75 72 70 67 66 
60	3	5		85 76 75 67 62 
61	3	7		91 85 82 78 73 69 68 
62	3	7		83 80 79 78 77 73 72 
63	3	10		99 98 92 91 87 85 82 80 79 77 
64	3	8		101 100 91 87 86 81 78 76 
65	3	10		101 97 92 87 86 85 83 80 79 78 
66	3	8		99 91 90 83 82 81 80 79 
67	3	9		101 99 98 92 89 86 80 78 77 
68	3	7		99 92 87 86 81 80 77 
69	3	8		101 100 99 97 92 87 86 79 
70	3	8		101 99 98 97 90 87 86 85 
71	3	6		99 91 90 89 81 78 
72	3	8		101 100 98 97 91 89 88 86 
73	3	6		99 96 87 86 84 81 
74	3	6		99 97 90 86 82 80 
75	3	4		99 89 81 80 
76	3	5		99 94 90 89 84 
77	3	5		100 97 94 90 88 
78	3	4		96 95 94 88 
79	3	4		95 94 93 89 
80	3	4		100 96 94 93 
81	3	3		98 97 88 
82	3	3		101 95 93 
83	3	3		98 94 93 
84	3	2		97 88 
85	3	2		96 88 
86	3	2		94 93 
87	3	2		95 94 
88	3	1		93 
89	3	1		96 
90	3	1		95 
91	3	1		95 
92	3	1		94 
93	3	1		102 
94	3	1		102 
95	3	1		102 
96	3	1		102 
97	3	1		102 
98	3	1		102 
99	3	1		102 
100	3	1		102 
101	3	1		102 
102	1	0		
************************************************************************
REQUESTS/DURATIONS
jobnr.	mode	dur	R1	R2	N1	N2	N3	N4	
------------------------------------------------------------------------
1	1	0	0	0	0	0	0	0	
2	1	3	5	4	1	6	6	4	
	2	7	5	2	1	5	5	4	
	3	10	4	2	1	2	5	4	
3	1	3	8	8	9	6	5	7	
	2	5	8	8	8	4	3	6	
	3	6	8	7	7	3	3	6	
4	1	5	6	9	5	8	9	7	
	2	6	5	7	3	5	8	5	
	3	9	4	1	2	4	7	3	
5	1	1	2	1	7	7	7	4	
	2	7	2	1	6	6	7	3	
	3	8	1	1	3	5	6	2	
6	1	6	8	4	7	5	4	7	
	2	7	7	4	7	4	2	6	
	3	10	5	2	7	4	2	6	
7	1	1	3	4	7	3	8	7	
	2	2	3	3	7	3	8	6	
	3	10	1	2	5	2	8	4	
8	1	1	7	8	8	5	3	10	
	2	5	7	5	5	4	3	9	
	3	10	5	4	4	4	3	8	
9	1	5	4	4	10	8	5	6	
	2	6	4	4	9	8	2	6	
	3	7	3	4	9	5	1	6	
10	1	3	6	8	5	5	8	4	
	2	4	4	3	4	4	7	3	
	3	8	4	1	1	4	7	2	
11	1	4	8	7	6	3	9	8	
	2	5	7	5	5	3	8	6	
	3	10	5	5	5	3	5	5	
12	1	6	8	6	7	7	9	10	
	2	7	7	6	7	6	9	9	
	3	9	7	6	4	5	9	9	
13	1	4	9	7	7	7	8	7	
	2	5	8	5	6	7	6	7	
	3	6	7	4	4	5	5	6	
14	1	7	5	4	9	5	5	7	
	2	9	5	3	7	4	4	5	
	3	10	5	3	6	4	4	2	
15	1	4	9	6	10	7	6	4	
	2	6	9	4	6	5	5	2	
	3	9	9	2	2	4	4	2	
16	1	2	7	7	2	6	9	5	
	2	4	6	6	1	5	9	4	
	3	8	6	6	1	4	8	3	
17	1	1	10	8	6	8	8	7	
	2	5	10	6	4	8	7	7	
	3	9	10	6	4	8	6	7	
18	1	2	3	7	5	5	5	9	
	2	7	2	6	3	5	4	8	
	3	9	2	5	2	3	4	8	
19	1	1	9	9	8	2	4	7	
	2	6	5	6	6	2	3	6	
	3	8	3	2	6	2	3	5	
20	1	1	5	9	8	7	9	7	
	2	9	4	9	7	7	8	5	
	3	10	4	9	6	6	6	4	
21	1	1	4	8	7	4	6	9	
	2	7	2	7	7	2	4	4	
	3	10	2	6	7	1	4	4	
22	1	2	7	6	6	5	3	8	
	2	5	6	5	4	5	3	7	
	3	10	6	5	4	5	3	6	
23	1	7	6	4	5	7	7	9	
	2	8	5	3	4	6	6	7	
	3	10	5	3	2	4	2	2	
24	1	4	6	3	8	4	2	3	
	2	7	5	1	5	4	2	3	
	3	8	5	1	4	4	1	3	
25	1	5	7	7	6	8	7	9	
	2	6	7	5	2	7	3	6	
	3	10	5	2	2	4	2	5	
26	1	1	7	8	6	6	4	8	
	2	3	5	6	5	5	3	6	
	3	6	5	4	4	3	2	5	
27	1	1	9	10	7	8	2	8	
	2	2	7	9	6	5	2	7	
	3	4	5	9	3	2	2	5	
28	1	3	7	1	5	5	5	7	
	2	7	7	1	2	5	4	6	
	3	8	7	1	2	5	3	4	
29	1	3	2	8	5	8	9	5	
	2	4	2	6	3	6	7	4	
	3	6	1	4	2	3	7	4	
30	1	1	5	6	6	8	6	6	
	2	4	5	4	5	5	4	6	
	3	7	5	4	3	3	3	6	
31	1	1	5	2	10	3	7	3	
	2	4	4	2	8	2	5	2	
	3	9	3	1	4	2	5	2	
32	1	2	2	9	2	10	2	9	
	2	6	1	6	2	7	2	7	
	3	9	1	5	2	3	2	6	
33	1	1	5	4	10	5	4	9	
	2	7	4	3	8	5	4	7	
	3	8	4	2	8	4	4	6	
34	1	5	6	9	5	3	9	9	
	2	9	5	9	5	2	9	6	
	3	10	4	8	5	2	9	5	
35	1	1	7	6	6	2	7	10	
	2	5	5	5	4	2	6	6	
	3	9	4	5	3	1	6	3	
36	1	1	6	5	3	3	8	6	
	2	2	4	5	2	3	4	5	
	3	8	2	4	1	2	2	4	
37	1	1	3	7	10	10	8	6	
	2	4	3	6	8	4	6	4	
	3	8	1	4	8	2	5	1	
38	1	2	2	8	7	7	8	3	
	2	4	1	8	5	7	7	3	
	3	6	1	7	3	7	7	3	
39	1	2	8	7	10	8	7	4	
	2	6	6	4	10	5	6	4	
	3	8	3	2	10	4	4	3	
40	1	6	7	3	8	7	8	6	
	2	9	7	3	6	5	6	5	
	3	10	5	2	6	4	5	3	
41	1	7	7	6	1	7	3	3	
	2	8	7	4	1	7	3	3	
	3	10	7	4	1	7	2	3	
42	1	2	8	9	9	6	7	9	
	2	7	7	8	7	6	4	4	
	3	9	7	8	5	6	3	1	
43	1	5	9	7	4	6	9	5	
	2	7	9	7	4	4	6	3	
	3	8	9	5	3	4	3	1	
44	1	2	7	9	9	9	5	7	
	2	6	4	8	9	7	5	5	
	3	10	1	7	9	7	3	3	
45	1	2	4	5	2	7	9	6	
	2	4	4	4	1	6	9	5	
	3	6	3	2	1	5	9	5	
46	1	1	9	8	3	3	6	8	
	2	4	3	6	3	2	5	7	
	3	6	2	4	3	1	5	7	
47	1	3	4	6	5	6	5	3	
	2	5	4	5	3	6	4	2	
	3	10	2	4	2	6	3	2	
48	1	1	7	9	9	9	7	7	
	2	2	6	6	8	6	5	4	
	3	6	4	3	8	3	5	3	
49	1	6	6	7	6	4	8	7	
	2	7	6	7	5	4	8	6	
	3	8	4	7	4	4	6	6	
50	1	1	6	5	4	4	3	10	
	2	2	5	4	4	3	2	8	
	3	10	5	3	4	1	2	7	
51	1	2	7	8	4	2	6	6	
	2	3	6	5	2	2	4	5	
	3	7	6	4	2	1	2	5	
52	1	3	7	5	9	6	6	1	
	2	5	6	3	7	4	5	1	
	3	6	5	3	7	4	3	1	
53	1	4	8	3	8	10	6	9	
	2	6	8	2	7	9	4	8	
	3	10	7	2	5	8	4	6	
54	1	5	3	6	5	7	2	6	
	2	7	2	6	4	6	2	6	
	3	8	2	5	3	4	1	6	
55	1	2	3	4	8	5	7	4	
	2	4	3	3	8	4	7	4	
	3	7	2	3	8	3	7	3	
56	1	4	5	10	4	6	8	5	
	2	8	5	7	3	5	7	5	
	3	10	4	3	2	4	7	5	
57	1	1	3	6	2	7	8	4	
	2	2	3	6	2	6	7	3	
	3	4	3	5	1	4	7	3	
58	1	2	2	6	7	6	10	4	
	2	5	2	6	6	5	8	4	
	3	7	1	6	6	3	8	4	
59	1	1	7	5	7	6	7	8	
	2	7	7	5	5	6	7	4	
	3	8	4	5	2	6	2	1	
60	1	3	2	9	6	9	8	6	
	2	4	2	6	5	6	8	6	
	3	9	2	3	4	4	8	6	
61	1	1	5	6	4	9	6	8	
	2	2	4	5	4	5	6	5	
	3	5	3	5	3	5	5	3	
62	1	2	3	9	5	5	8	9	
	2	5	3	8	5	4	7	9	
	3	10	3	7	4	4	7	9	
63	1	1	8	9	8	2	4	7	
	2	7	6	9	7	1	3	7	
	3	9	5	9	7	1	3	6	
64	1	2	10	6	6	8	10	4	
	2	4	6	6	6	5	6	4	
	3	9	6	3	5	4	5	3	
65	1	1	8	3	3	5	4	8	
	2	3	7	3	2	3	2	8	
	3	6	5	1	2	3	2	8	
66	1	1	1	9	2	6	4	5	
	2	2	1	8	2	5	3	4	
	3	7	1	8	2	4	2	1	
67	1	5	8	5	4	5	3	8	
	2	8	8	2	4	5	3	7	
	3	9	6	2	4	2	1	6	
68	1	5	9	10	8	5	4	10	
	2	7	7	10	5	5	3	9	
	3	9	3	10	5	5	3	7	
69	1	2	8	6	5	10	2	6	
	2	5	6	6	5	8	2	6	
	3	10	6	6	5	5	2	6	
70	1	4	7	7	10	6	7	5	
	2	6	6	7	6	5	5	5	
	3	8	4	5	4	4	3	5	
71	1	3	7	7	5	6	7	8	
	2	5	5	6	4	5	6	5	
	3	9	4	4	2	4	6	4	
72	1	4	7	6	5	6	10	6	
	2	6	7	5	3	6	9	5	
	3	8	7	5	3	6	9	4	
73	1	1	6	6	5	6	9	6	
	2	2	5	5	2	5	6	6	
	3	5	5	3	1	4	5	5	
74	1	3	5	7	7	5	8	6	
	2	4	4	5	6	2	5	6	
	3	5	3	5	3	1	3	3	
75	1	5	5	5	10	5	6	7	
	2	6	4	3	8	4	4	4	
	3	7	1	2	8	3	2	4	
76	1	3	7	9	7	4	3	6	
	2	7	6	6	6	3	2	5	
	3	8	5	3	5	2	1	3	
77	1	2	8	4	1	5	10	5	
	2	3	8	2	1	3	4	5	
	3	5	6	2	1	1	4	5	
78	1	2	5	7	4	7	5	1	
	2	6	4	7	4	5	5	1	
	3	7	4	7	4	3	4	1	
79	1	2	10	3	6	5	10	5	
	2	3	7	3	6	3	7	3	
	3	8	6	3	3	3	6	2	
80	1	4	6	7	2	8	8	7	
	2	6	6	6	2	6	7	6	
	3	7	5	4	2	4	7	6	
81	1	4	1	7	9	6	5	5	
	2	7	1	6	7	5	3	5	
	3	10	1	5	5	5	1	4	
82	1	2	8	2	9	2	8	6	
	2	4	8	1	5	1	7	4	
	3	6	8	1	3	1	7	2	
83	1	2	1	5	2	3	1	7	
	2	5	1	5	2	3	1	6	
	3	6	1	2	2	2	1	7	
84	1	3	4	4	7	10	7	4	
	2	6	3	4	7	10	6	4	
	3	7	3	4	7	10	2	4	
85	1	5	9	7	7	9	10	6	
	2	8	7	4	5	7	7	6	
	3	9	5	3	3	6	3	5	
86	1	1	4	4	9	5	9	8	
	2	4	3	3	7	4	9	7	
	3	7	3	3	6	4	9	6	
87	1	2	4	3	6	7	2	4	
	2	9	2	2	6	7	2	4	
	3	10	2	2	6	5	2	4	
88	1	3	4	2	1	9	3	6	
	2	9	2	2	1	7	2	4	
	3	10	2	1	1	6	2	3	
89	1	3	9	8	7	8	3	4	
	2	6	6	6	7	6	2	3	
	3	7	4	5	2	3	2	2	
90	1	1	9	8	4	7	6	7	
	2	5	7	6	4	5	6	7	
	3	6	6	6	4	5	3	5	
91	1	4	10	6	2	9	5	2	
	2	5	8	6	2	8	4	2	
	3	8	8	6	1	8	4	1	
92	1	1	9	8	1	5	2	6	
	2	4	5	8	1	3	2	5	
	3	8	2	5	1	2	2	4	
93	1	3	2	9	5	4	5	7	
	2	4	2	7	5	3	5	7	
	3	9	2	5	5	2	5	6	
94	1	5	6	9	7	6	7	7	
	2	7	6	9	5	6	7	5	
	3	8	6	9	5	5	7	4	
95	1	4	7	2	8	9	3	9	
	2	8	6	1	7	9	3	8	
	3	10	3	1	7	9	3	7	
96	1	7	2	9	8	7	9	7	
	2	8	1	7	7	5	8	4	
	3	9	1	4	6	4	8	4	
97	1	1	7	7	7	5	7	1	
	2	8	7	4	4	3	6	1	
	3	10	7	4	3	2	6	1	
98	1	1	7	5	9	7	6	8	
	2	7	6	2	7	6	6	4	
	3	10	5	2	4	5	6	4	
99	1	2	6	9	7	6	9	4	
	2	3	3	6	7	5	6	2	
	3	4	2	3	4	5	6	2	
100	1	7	2	7	5	6	5	8	
	2	8	2	7	4	5	5	7	
	3	10	1	5	4	4	5	7	
101	1	2	1	8	8	6	9	4	
	2	5	1	6	5	5	8	4	
	3	10	1	6	4	3	6	4	
102	1	0	0	0	0	0	0	0	
************************************************************************

 RESOURCE AVAILABILITIES 
	R 1	R 2	N 1	N 2	N 3	N 4
	54	64	450	445	481	478

************************************************************************
